========================================================== 
File name: C:\DEGR\assets\definitions\MSRCPSP_noconst\200_40_0_0.def
Creation date: Sat May 13 10:38:20 CEST 2023
Website: http://imopse.ii.pwr.edu.pl/ 
Reference: 
Myszkowski P. B., Skowronski M. E., Olech L., Oslizlo K., 
Hybrid Ant Colony Optimization in solving Multi-Skill Resource-Constrained Project Scheduling Problem, 
Soft Computing, DOI: DOI 10.1007/s00500-014-1455-x 
========================================================== 
General characteristics: 
Tasks: 200
Resources: 40
Precedence relations: 0
Number of skill types: 1
========================================================== 
ResourceID 	 Salary 	 Skills 
1	 	 	25.6	 	 Q0: 0 	 
2	 	 	47.0	 	 Q0: 0 	 
3	 	 	86.1	 	 Q0: 0 	 
4	 	 	85.0	 	 Q0: 0 	 
5	 	 	40.6	 	 Q0: 0 	 
6	 	 	57.5	 	 Q0: 0 	 
7	 	 	36.3	 	 Q0: 0 	 
8	 	 	38.4	 	 Q0: 0 	 
9	 	 	21.1	 	 Q0: 0 	 
10	 	 	63.5	 	 Q0: 0 	 
11	 	 	61.8	 	 Q0: 0 	 
12	 	 	52.5	 	 Q0: 0 	 
13	 	 	31.3	 	 Q0: 0 	 
14	 	 	33.5	 	 Q0: 0 	 
15	 	 	90.2	 	 Q0: 0 	 
16	 	 	40.4	 	 Q0: 0 	 
17	 	 	37.3	 	 Q0: 0 	 
18	 	 	18.7	 	 Q0: 0 	 
19	 	 	10.5	 	 Q0: 0 	 
20	 	 	36.0	 	 Q0: 0 	 
21	 	 	18.2	 	 Q0: 0 	 
22	 	 	55.1	 	 Q0: 0 	 
23	 	 	71.4	 	 Q0: 0 	 
24	 	 	77.9	 	 Q0: 0 	 
25	 	 	87.7	 	 Q0: 0 	 
26	 	 	40.4	 	 Q0: 0 	 
27	 	 	29.6	 	 Q0: 0 	 
28	 	 	94.6	 	 Q0: 0 	 
29	 	 	92.0	 	 Q0: 0 	 
30	 	 	94.3	 	 Q0: 0 	 
31	 	 	37.7	 	 Q0: 0 	 
32	 	 	40.1	 	 Q0: 0 	 
33	 	 	64.2	 	 Q0: 0 	 
34	 	 	42.3	 	 Q0: 0 	 
35	 	 	69.9	 	 Q0: 0 	 
36	 	 	10.6	 	 Q0: 0 	 
37	 	 	55.3	 	 Q0: 0 	 
38	 	 	14.0	 	 Q0: 0 	 
39	 	 	20.4	 	 Q0: 0 	 
40	 	 	96.5	 	 Q0: 0 	 
========================================================== 
TaskID 	 Duration 	 Skill 	 Predecessor IDs 
1	 	 	19	 Q0: 0	 	
2	 	 	32	 Q0: 0	 	
3	 	 	12	 Q0: 0	 	
4	 	 	20	 Q0: 0	 	
5	 	 	35	 Q0: 0	 	
6	 	 	25	 Q0: 0	 	
7	 	 	35	 Q0: 0	 	
8	 	 	28	 Q0: 0	 	
9	 	 	16	 Q0: 0	 	
10	 	 	25	 Q0: 0	 	
11	 	 	23	 Q0: 0	 	
12	 	 	31	 Q0: 0	 	
13	 	 	37	 Q0: 0	 	
14	 	 	23	 Q0: 0	 	
15	 	 	20	 Q0: 0	 	
16	 	 	23	 Q0: 0	 	
17	 	 	19	 Q0: 0	 	
18	 	 	26	 Q0: 0	 	
19	 	 	9	 Q0: 0	 	
20	 	 	31	 Q0: 0	 	
21	 	 	29	 Q0: 0	 	
22	 	 	35	 Q0: 0	 	
23	 	 	28	 Q0: 0	 	
24	 	 	24	 Q0: 0	 	
25	 	 	21	 Q0: 0	 	
26	 	 	34	 Q0: 0	 	
27	 	 	21	 Q0: 0	 	
28	 	 	19	 Q0: 0	 	
29	 	 	30	 Q0: 0	 	
30	 	 	14	 Q0: 0	 	
31	 	 	38	 Q0: 0	 	
32	 	 	24	 Q0: 0	 	
33	 	 	24	 Q0: 0	 	
34	 	 	12	 Q0: 0	 	
35	 	 	38	 Q0: 0	 	
36	 	 	27	 Q0: 0	 	
37	 	 	40	 Q0: 0	 	
38	 	 	39	 Q0: 0	 	
39	 	 	10	 Q0: 0	 	
40	 	 	37	 Q0: 0	 	
41	 	 	25	 Q0: 0	 	
42	 	 	11	 Q0: 0	 	
43	 	 	34	 Q0: 0	 	
44	 	 	23	 Q0: 0	 	
45	 	 	30	 Q0: 0	 	
46	 	 	38	 Q0: 0	 	
47	 	 	18	 Q0: 0	 	
48	 	 	38	 Q0: 0	 	
49	 	 	38	 Q0: 0	 	
50	 	 	20	 Q0: 0	 	
51	 	 	40	 Q0: 0	 	
52	 	 	37	 Q0: 0	 	
53	 	 	28	 Q0: 0	 	
54	 	 	15	 Q0: 0	 	
55	 	 	24	 Q0: 0	 	
56	 	 	9	 Q0: 0	 	
57	 	 	22	 Q0: 0	 	
58	 	 	33	 Q0: 0	 	
59	 	 	15	 Q0: 0	 	
60	 	 	11	 Q0: 0	 	
61	 	 	15	 Q0: 0	 	
62	 	 	21	 Q0: 0	 	
63	 	 	22	 Q0: 0	 	
64	 	 	31	 Q0: 0	 	
65	 	 	25	 Q0: 0	 	
66	 	 	18	 Q0: 0	 	
67	 	 	36	 Q0: 0	 	
68	 	 	35	 Q0: 0	 	
69	 	 	23	 Q0: 0	 	
70	 	 	24	 Q0: 0	 	
71	 	 	9	 Q0: 0	 	
72	 	 	36	 Q0: 0	 	
73	 	 	28	 Q0: 0	 	
74	 	 	14	 Q0: 0	 	
75	 	 	26	 Q0: 0	 	
76	 	 	24	 Q0: 0	 	
77	 	 	32	 Q0: 0	 	
78	 	 	25	 Q0: 0	 	
79	 	 	20	 Q0: 0	 	
80	 	 	25	 Q0: 0	 	
81	 	 	33	 Q0: 0	 	
82	 	 	40	 Q0: 0	 	
83	 	 	22	 Q0: 0	 	
84	 	 	35	 Q0: 0	 	
85	 	 	38	 Q0: 0	 	
86	 	 	31	 Q0: 0	 	
87	 	 	10	 Q0: 0	 	
88	 	 	25	 Q0: 0	 	
89	 	 	33	 Q0: 0	 	
90	 	 	28	 Q0: 0	 	
91	 	 	21	 Q0: 0	 	
92	 	 	17	 Q0: 0	 	
93	 	 	22	 Q0: 0	 	
94	 	 	17	 Q0: 0	 	
95	 	 	40	 Q0: 0	 	
96	 	 	34	 Q0: 0	 	
97	 	 	15	 Q0: 0	 	
98	 	 	18	 Q0: 0	 	
99	 	 	15	 Q0: 0	 	
100	 	 	23	 Q0: 0	 	
101	 	 	9	 Q0: 0	 	
102	 	 	19	 Q0: 0	 	
103	 	 	22	 Q0: 0	 	
104	 	 	35	 Q0: 0	 	
105	 	 	19	 Q0: 0	 	
106	 	 	34	 Q0: 0	 	
107	 	 	39	 Q0: 0	 	
108	 	 	34	 Q0: 0	 	
109	 	 	13	 Q0: 0	 	
110	 	 	17	 Q0: 0	 	
111	 	 	25	 Q0: 0	 	
112	 	 	35	 Q0: 0	 	
113	 	 	31	 Q0: 0	 	
114	 	 	19	 Q0: 0	 	
115	 	 	37	 Q0: 0	 	
116	 	 	18	 Q0: 0	 	
117	 	 	26	 Q0: 0	 	
118	 	 	13	 Q0: 0	 	
119	 	 	35	 Q0: 0	 	
120	 	 	25	 Q0: 0	 	
121	 	 	10	 Q0: 0	 	
122	 	 	39	 Q0: 0	 	
123	 	 	31	 Q0: 0	 	
124	 	 	30	 Q0: 0	 	
125	 	 	29	 Q0: 0	 	
126	 	 	10	 Q0: 0	 	
127	 	 	19	 Q0: 0	 	
128	 	 	27	 Q0: 0	 	
129	 	 	17	 Q0: 0	 	
130	 	 	23	 Q0: 0	 	
131	 	 	32	 Q0: 0	 	
132	 	 	32	 Q0: 0	 	
133	 	 	33	 Q0: 0	 	
134	 	 	32	 Q0: 0	 	
135	 	 	25	 Q0: 0	 	
136	 	 	21	 Q0: 0	 	
137	 	 	24	 Q0: 0	 	
138	 	 	11	 Q0: 0	 	
139	 	 	30	 Q0: 0	 	
140	 	 	18	 Q0: 0	 	
141	 	 	25	 Q0: 0	 	
142	 	 	19	 Q0: 0	 	
143	 	 	31	 Q0: 0	 	
144	 	 	13	 Q0: 0	 	
145	 	 	39	 Q0: 0	 	
146	 	 	20	 Q0: 0	 	
147	 	 	39	 Q0: 0	 	
148	 	 	23	 Q0: 0	 	
149	 	 	35	 Q0: 0	 	
150	 	 	31	 Q0: 0	 	
151	 	 	14	 Q0: 0	 	
152	 	 	33	 Q0: 0	 	
153	 	 	26	 Q0: 0	 	
154	 	 	11	 Q0: 0	 	
155	 	 	25	 Q0: 0	 	
156	 	 	31	 Q0: 0	 	
157	 	 	9	 Q0: 0	 	
158	 	 	16	 Q0: 0	 	
159	 	 	34	 Q0: 0	 	
160	 	 	27	 Q0: 0	 	
161	 	 	13	 Q0: 0	 	
162	 	 	21	 Q0: 0	 	
163	 	 	39	 Q0: 0	 	
164	 	 	16	 Q0: 0	 	
165	 	 	26	 Q0: 0	 	
166	 	 	18	 Q0: 0	 	
167	 	 	26	 Q0: 0	 	
168	 	 	30	 Q0: 0	 	
169	 	 	11	 Q0: 0	 	
170	 	 	40	 Q0: 0	 	
171	 	 	13	 Q0: 0	 	
172	 	 	27	 Q0: 0	 	
173	 	 	33	 Q0: 0	 	
174	 	 	37	 Q0: 0	 	
175	 	 	23	 Q0: 0	 	
176	 	 	16	 Q0: 0	 	
177	 	 	9	 Q0: 0	 	
178	 	 	16	 Q0: 0	 	
179	 	 	31	 Q0: 0	 	
180	 	 	16	 Q0: 0	 	
181	 	 	16	 Q0: 0	 	
182	 	 	29	 Q0: 0	 	
183	 	 	31	 Q0: 0	 	
184	 	 	23	 Q0: 0	 	
185	 	 	16	 Q0: 0	 	
186	 	 	37	 Q0: 0	 	
187	 	 	17	 Q0: 0	 	
188	 	 	17	 Q0: 0	 	
189	 	 	19	 Q0: 0	 	
190	 	 	29	 Q0: 0	 	
191	 	 	17	 Q0: 0	 	
192	 	 	37	 Q0: 0	 	
193	 	 	19	 Q0: 0	 	
194	 	 	24	 Q0: 0	 	
195	 	 	35	 Q0: 0	 	
196	 	 	25	 Q0: 0	 	
197	 	 	31	 Q0: 0	 	
198	 	 	32	 Q0: 0	 	
199	 	 	23	 Q0: 0	 	
200	 	 	32	 Q0: 0	 	
========================================================== 
